%nprocshared=4
%mem=1GB
%chk=G:\Education Materials\GitHub Repositories\dft-analysis-cid-545295\545295_CEM.chk
# opt freq b3lyp/6-311+g(d,p) geom=connectivity

545295_opt

0 1
 O                  3.15100000   -0.69580000    0.74000000
 C                  2.78460000   -0.15450000   -0.54480000
 C                 -1.19030000    0.16160000   -0.02380000
 C                  1.27380000    0.02950000   -0.92270000
 C                  0.32040000    0.00130000    0.28930000
 C                  3.46840000    0.69620000    0.58670000
 C                 -1.49080000    1.51580000   -0.69770000
 C                 -1.71080000   -0.97860000   -0.92260000
 C                 -1.95660000    0.10820000    1.31370000
 H                  3.44730000   -0.41650000   -1.39460000
 H                  1.17600000    0.98130000   -1.44370000
 H                  1.00830000   -0.76940000   -1.61400000
 H                  0.61270000    0.79920000    0.97300000
 H                  0.46410000   -0.94730000    0.80930000
 H                  4.53540000    0.94840000    0.42460000
 H                  2.81930000    1.41950000    1.11840000
 H                 -1.10020000    2.33250000   -0.08910000
 H                 -1.03560000    1.56130000   -1.68710000
 H                 -2.56780000    1.64680000   -0.81180000
 H                 -2.79260000   -0.89960000   -1.03930000
 H                 -1.47550000   -1.94550000   -0.47580000
 H                 -1.25720000   -0.92480000   -1.91220000
 H                 -1.62520000    0.91410000    1.97020000
 H                 -3.02830000    0.21760000    1.14080000
 H                 -1.77910000   -0.84620000    1.81160000

 1 2 1.0 6 1.0
 2 4 1.0 6 1.0 10 1.0
 3 5 1.0 7 1.0 8 1.0 9 1.0
 4 5 1.0 11 1.0 12 1.0
 5 13 1.0 14 1.0
 6 15 1.0 16 1.0
 7 17 1.0 18 1.0 19 1.0
 8 20 1.0 21 1.0 22 1.0
 9 23 1.0 24 1.0 25 1.0
 10
 11
 12
 13
 14
 15
 16
 17
 18
 19
 20
 21
 22
 23
 24
 25

